<number of tasks>
50

<cycle time>
1000

<order strength>
0.596


<task times>
1 128
2 218
3 120
4 153
5 163
6 216
7 89
8 79
9 77
10 139
11 114
12 105
13 109
14 147
15 80
16 164
17 393
18 204
19 233
20 89
21 130
22 140
23 37
24 81
25 65
26 44
27 128
28 188
29 270
30 113
31 113
32 97
33 112
34 191
35 47
36 112
37 47
38 38
39 32
40 166
41 125
42 56
43 200
44 43
45 214
46 21
47 158
48 218
49 153
50 124

<precedence relations>
1,8
2,8
3,8
4,8
5,7
5,10
6,9
6,11
6,24
7,25
8,13
8,14
8,15
8,16
9,12
9,17
9,18
10,17
10,23
11,12
12,25
13,27
13,42
14,19
15,38
15,49
15,50
16,19
16,20
17,21
17,22
19,22
19,23
20,21
20,22
21,25
22,25
23,24
23,26
23,37
23,44
24,43
25,27
25,28
25,29
25,30
25,31
25,32
25,33
25,34
26,40
27,43
28,35
28,36
30,35
31,40
31,44
32,37
32,49
33,36
34,44
35,39
35,40
35,42
36,37
36,38
36,41
37,43
38,43
39,44
41,43
42,49
43,45
43,46
43,47
43,48
44,49
44,50

<end>
